c This file is generated by v2cnfMtr
c Generated on Wed Sep 23 17:53:47 2015
p cnf 871 2402
-1 -2 -118 0
1 2 -118 0
1 -2 118 0
-1 2 118 0
-3 -4 -119 0
3 4 -119 0
3 -4 119 0
-3 4 119 0
-5 -6 -120 0
5 6 -120 0
5 -6 120 0
-5 6 120 0
-7 -8 -121 0
7 8 -121 0
7 -8 121 0
-7 8 121 0
-9 -10 -122 0
9 10 -122 0
9 -10 122 0
-9 10 122 0
-11 -12 -123 0
11 12 -123 0
11 -12 123 0
-11 12 123 0
-13 -14 -124 0
13 14 -124 0
13 -14 124 0
-13 14 124 0
-15 -16 -125 0
15 16 -125 0
15 -16 125 0
-15 16 125 0
-17 -18 -126 0
17 18 -126 0
17 -18 126 0
-17 18 126 0
19 288 0
-19 -288 0
20 289 0
-20 -289 0
-288 -42 310 0
288 -310 0
42 -310 0
-289 -310 311 0
289 -311 0
310 -311 0
-19 -43 312 0
19 -312 0
43 -312 0
-289 -312 313 0
289 -313 0
312 -313 0
-288 -44 314 0
288 -314 0
44 -314 0
-20 -314 315 0
20 -315 0
314 -315 0
-19 -45 316 0
19 -316 0
45 -316 0
-20 -316 317 0
20 -317 0
316 -317 0
311 313 -318 0
-311 318 0
-313 318 0
315 318 -319 0
-315 319 0
-318 319 0
317 319 -127 0
-317 127 0
-319 127 0
21 290 0
-21 -290 0
22 291 0
-22 -291 0
-290 -46 320 0
290 -320 0
46 -320 0
-291 -320 321 0
291 -321 0
320 -321 0
-21 -47 322 0
21 -322 0
47 -322 0
-291 -322 323 0
291 -323 0
322 -323 0
-290 -48 324 0
290 -324 0
48 -324 0
-22 -324 325 0
22 -325 0
324 -325 0
-21 -49 326 0
21 -326 0
49 -326 0
-22 -326 327 0
22 -327 0
326 -327 0
321 323 -328 0
-321 328 0
-323 328 0
325 328 -329 0
-325 329 0
-328 329 0
327 329 -128 0
-327 128 0
-329 128 0
-23 -24 -129 0
23 24 -129 0
23 -24 129 0
-23 24 129 0
25 292 0
-25 -292 0
26 293 0
-26 -293 0
-292 -50 330 0
292 -330 0
50 -330 0
-293 -330 331 0
293 -331 0
330 -331 0
-25 -51 332 0
25 -332 0
51 -332 0
-293 -332 333 0
293 -333 0
332 -333 0
-292 -52 334 0
292 -334 0
52 -334 0
-26 -334 335 0
26 -335 0
334 -335 0
-25 -53 336 0
25 -336 0
53 -336 0
-26 -336 337 0
26 -337 0
336 -337 0
331 333 -338 0
-331 338 0
-333 338 0
335 338 -339 0
-335 339 0
-338 339 0
337 339 -130 0
-337 130 0
-339 130 0
-27 -28 -131 0
27 28 -131 0
27 -28 131 0
-27 28 131 0
-29 -30 -132 0
29 30 -132 0
29 -30 132 0
-29 30 132 0
-31 -32 -133 0
31 32 -133 0
31 -32 133 0
-31 32 133 0
-33 -41 134 0
33 -134 0
41 -134 0
-34 -41 135 0
34 -135 0
41 -135 0
-35 -41 136 0
35 -136 0
41 -136 0
-36 -41 137 0
36 -137 0
41 -137 0
-37 -41 138 0
37 -138 0
41 -138 0
-38 -41 139 0
38 -139 0
41 -139 0
-39 -41 140 0
39 -140 0
41 -140 0
-40 -41 141 0
40 -141 0
41 -141 0
-1 -5 -142 0
1 5 -142 0
1 -5 142 0
-1 5 142 0
-9 -13 -143 0
9 13 -143 0
9 -13 143 0
-9 13 143 0
-2 -6 -144 0
2 6 -144 0
2 -6 144 0
-2 6 144 0
-10 -14 -145 0
10 14 -145 0
10 -14 145 0
-10 14 145 0
-3 -7 -146 0
3 7 -146 0
3 -7 146 0
-3 7 146 0
-11 -15 -147 0
11 15 -147 0
11 -15 147 0
-11 15 147 0
-4 -8 -148 0
4 8 -148 0
4 -8 148 0
-4 8 148 0
-12 -16 -149 0
12 16 -149 0
12 -16 149 0
-12 16 149 0
-17 -21 -150 0
17 21 -150 0
17 -21 150 0
-17 21 150 0
-25 -29 -151 0
25 29 -151 0
25 -29 151 0
-25 29 151 0
-18 -22 -152 0
18 22 -152 0
18 -22 152 0
-18 22 152 0
-26 -30 -153 0
26 30 -153 0
26 -30 153 0
-26 30 153 0
-19 -23 -154 0
19 23 -154 0
19 -23 154 0
-19 23 154 0
-27 -31 -155 0
27 31 -155 0
27 -31 155 0
-27 31 155 0
-20 -24 -156 0
20 24 -156 0
20 -24 156 0
-20 24 156 0
-28 -32 -157 0
28 32 -157 0
28 -32 157 0
-28 32 157 0
-118 -119 -158 0
118 119 -158 0
118 -119 158 0
-118 119 158 0
-120 -121 -159 0
120 121 -159 0
120 -121 159 0
-120 121 159 0
-122 -123 -160 0
122 123 -160 0
122 -123 160 0
-122 123 160 0
-124 -125 -161 0
124 125 -161 0
124 -125 161 0
-124 125 161 0
-126 -127 -162 0
126 127 -162 0
126 -127 162 0
-126 127 162 0
-128 -129 -163 0
128 129 -163 0
128 -129 163 0
-128 129 163 0
-130 -131 -164 0
130 131 -164 0
130 -131 164 0
-130 131 164 0
-132 -133 -165 0
132 133 -165 0
132 -133 165 0
-132 133 165 0
-142 -143 -166 0
142 143 -166 0
142 -143 166 0
-142 143 166 0
-144 -145 -167 0
144 145 -167 0
144 -145 167 0
-144 145 167 0
-146 -147 -168 0
146 147 -168 0
146 -147 168 0
-146 147 168 0
-148 -149 -169 0
148 149 -169 0
148 -149 169 0
-148 149 169 0
-150 -151 -170 0
150 151 -170 0
150 -151 170 0
-150 151 170 0
-152 -153 -171 0
152 153 -171 0
152 -153 171 0
-152 153 171 0
-154 -155 -172 0
154 155 -172 0
154 -155 172 0
-154 155 172 0
156 294 0
-156 -294 0
157 295 0
-157 -295 0
-294 -54 340 0
294 -340 0
54 -340 0
-295 -340 341 0
295 -341 0
340 -341 0
-156 -55 342 0
156 -342 0
55 -342 0
-295 -342 343 0
295 -343 0
342 -343 0
-294 -56 344 0
294 -344 0
56 -344 0
-157 -344 345 0
157 -345 0
344 -345 0
-156 -57 346 0
156 -346 0
57 -346 0
-157 -346 347 0
157 -347 0
346 -347 0
341 343 -348 0
-341 348 0
-343 348 0
345 348 -349 0
-345 349 0
-348 349 0
347 349 -173 0
-347 173 0
-349 173 0
-158 -159 -174 0
158 159 -174 0
158 -159 174 0
-158 159 174 0
-160 -161 -175 0
160 161 -175 0
160 -161 175 0
-160 161 175 0
-158 -160 -176 0
158 160 -176 0
158 -160 176 0
-158 160 176 0
-159 -161 -177 0
159 161 -177 0
159 -161 177 0
-159 161 177 0
-162 -163 -178 0
162 163 -178 0
162 -163 178 0
-162 163 178 0
-164 -165 -179 0
164 165 -179 0
164 -165 179 0
-164 165 179 0
-162 -164 -180 0
162 164 -180 0
162 -164 180 0
-162 164 180 0
-163 -165 -181 0
163 165 -181 0
163 -165 181 0
-163 165 181 0
-134 -178 -182 0
134 178 -182 0
134 -178 182 0
-134 178 182 0
-135 -179 -183 0
135 179 -183 0
135 -179 183 0
-135 179 183 0
-136 -180 -184 0
136 180 -184 0
136 -180 184 0
-136 180 184 0
-137 -181 -185 0
137 181 -185 0
137 -181 185 0
-137 181 185 0
-138 -174 -186 0
138 174 -186 0
138 -174 186 0
-138 174 186 0
-139 -175 -187 0
139 175 -187 0
139 -175 187 0
-139 175 187 0
140 296 0
-140 -296 0
176 297 0
-176 -297 0
-296 -58 350 0
296 -350 0
58 -350 0
-297 -350 351 0
297 -351 0
350 -351 0
-140 -59 352 0
140 -352 0
59 -352 0
-297 -352 353 0
297 -353 0
352 -353 0
-296 -60 354 0
296 -354 0
60 -354 0
-176 -354 355 0
176 -355 0
354 -355 0
-140 -61 356 0
140 -356 0
61 -356 0
-176 -356 357 0
176 -357 0
356 -357 0
351 353 -358 0
-351 358 0
-353 358 0
355 358 -359 0
-355 359 0
-358 359 0
357 359 -188 0
-357 188 0
-359 188 0
-141 -177 -189 0
141 177 -189 0
141 -177 189 0
-141 177 189 0
-166 -182 -190 0
166 182 -190 0
166 -182 190 0
-166 182 190 0
-167 -183 -191 0
167 183 -191 0
167 -183 191 0
-167 183 191 0
-168 -184 -192 0
168 184 -192 0
168 -184 192 0
-168 184 192 0
-169 -185 -193 0
169 185 -193 0
169 -185 193 0
-169 185 193 0
-170 -186 -194 0
170 186 -194 0
170 -186 194 0
-170 186 194 0
-171 -187 -195 0
171 187 -195 0
171 -187 195 0
-171 187 195 0
-172 -188 -196 0
172 188 -196 0
172 -188 196 0
-172 188 196 0
173 298 0
-173 -298 0
189 299 0
-189 -299 0
-298 -62 360 0
298 -360 0
62 -360 0
-299 -360 361 0
299 -361 0
360 -361 0
-173 -63 362 0
173 -362 0
63 -362 0
-299 -362 363 0
299 -363 0
362 -363 0
-298 -64 364 0
298 -364 0
64 -364 0
-189 -364 365 0
189 -365 0
364 -365 0
-173 -65 366 0
173 -366 0
65 -366 0
-189 -366 367 0
189 -367 0
366 -367 0
361 363 -368 0
-361 368 0
-363 368 0
365 368 -369 0
-365 369 0
-368 369 0
367 369 -197 0
-367 197 0
-369 197 0
190 198 0
-190 -198 0
191 199 0
-191 -199 0
192 200 0
-192 -200 0
190 201 0
-190 -201 0
191 202 0
-191 -202 0
193 203 0
-193 -203 0
190 204 0
-190 -204 0
192 205 0
-192 -205 0
193 206 0
-193 -206 0
191 207 0
-191 -207 0
192 208 0
-192 -208 0
193 209 0
-193 -209 0
195 210 0
-195 -210 0
197 211 0
-197 -211 0
195 212 0
-195 -212 0
196 213 0
-196 -213 0
194 214 0
-194 -214 0
197 215 0
-197 -215 0
194 216 0
-194 -216 0
196 217 0
-196 -217 0
194 218 0
-194 -218 0
195 219 0
-195 -219 0
196 220 0
-196 -220 0
194 221 0
-194 -221 0
195 222 0
-195 -222 0
197 223 0
-197 -223 0
194 224 0
-194 -224 0
196 225 0
-196 -225 0
197 226 0
-197 -226 0
195 227 0
-195 -227 0
196 228 0
-196 -228 0
197 229 0
-197 -229 0
191 230 0
-191 -230 0
193 231 0
-193 -231 0
191 232 0
-191 -232 0
192 233 0
-192 -233 0
190 234 0
-190 -234 0
193 235 0
-193 -235 0
190 236 0
-190 -236 0
192 237 0
-192 -237 0
-198 -199 -200 -193 238 0
198 -238 0
199 -238 0
200 -238 0
193 -238 0
-201 -202 -192 -203 239 0
201 -239 0
202 -239 0
192 -239 0
203 -239 0
-204 -191 -205 -206 240 0
204 -240 0
191 -240 0
205 -240 0
206 -240 0
-190 -207 -208 -209 241 0
190 -241 0
207 -241 0
208 -241 0
209 -241 0
-218 -219 -220 -197 242 0
218 -242 0
219 -242 0
220 -242 0
197 -242 0
-221 -222 -196 -223 243 0
221 -243 0
222 -243 0
196 -243 0
223 -243 0
-224 -195 -225 -226 244 0
224 -244 0
195 -244 0
225 -244 0
226 -244 0
-194 -227 -228 -229 245 0
194 -245 0
227 -245 0
228 -245 0
229 -245 0
238 239 240 241 -246 0
-238 246 0
-239 246 0
-240 246 0
-241 246 0
242 243 244 245 -247 0
-242 247 0
-243 247 0
-244 247 0
-245 247 0
-194 -210 -196 -211 -246 248 0
194 -248 0
210 -248 0
196 -248 0
211 -248 0
246 -248 0
-194 -212 -213 -197 -246 249 0
194 -249 0
212 -249 0
213 -249 0
197 -249 0
246 -249 0
-214 -195 -196 -215 -246 250 0
214 -250 0
195 -250 0
196 -250 0
215 -250 0
246 -250 0
-216 -195 -217 -197 -246 251 0
216 -251 0
195 -251 0
217 -251 0
197 -251 0
246 -251 0
-190 -230 -192 -231 -247 252 0
190 -252 0
230 -252 0
192 -252 0
231 -252 0
247 -252 0
-190 -232 -233 -193 -247 253 0
190 -253 0
232 -253 0
233 -253 0
193 -253 0
247 -253 0
-234 -191 -192 -235 -247 254 0
234 -254 0
191 -254 0
192 -254 0
235 -254 0
247 -254 0
-236 -191 -237 -193 -247 255 0
236 -255 0
191 -255 0
237 -255 0
193 -255 0
247 -255 0
-190 -248 256 0
190 -256 0
248 -256 0
-191 -248 257 0
191 -257 0
248 -257 0
-192 -248 258 0
192 -258 0
248 -258 0
-193 -248 259 0
193 -259 0
248 -259 0
-190 -249 260 0
190 -260 0
249 -260 0
-191 -249 261 0
191 -261 0
249 -261 0
-192 -249 262 0
192 -262 0
249 -262 0
-193 -249 263 0
193 -263 0
249 -263 0
-190 -250 264 0
190 -264 0
250 -264 0
-191 -250 265 0
191 -265 0
250 -265 0
-192 -250 266 0
192 -266 0
250 -266 0
-193 -250 267 0
193 -267 0
250 -267 0
-190 -251 268 0
190 -268 0
251 -268 0
-191 -251 269 0
191 -269 0
251 -269 0
-192 -251 270 0
192 -270 0
251 -270 0
-193 -251 271 0
193 -271 0
251 -271 0
-194 -252 272 0
194 -272 0
252 -272 0
-195 -252 273 0
195 -273 0
252 -273 0
-196 -252 274 0
196 -274 0
252 -274 0
-197 -252 275 0
197 -275 0
252 -275 0
-194 -253 276 0
194 -276 0
253 -276 0
-195 -253 277 0
195 -277 0
253 -277 0
-196 -253 278 0
196 -278 0
253 -278 0
-197 -253 279 0
197 -279 0
253 -279 0
-194 -254 280 0
194 -280 0
254 -280 0
195 302 0
-195 -302 0
254 301 0
-254 -301 0
-302 -66 370 0
302 -370 0
66 -370 0
-301 -370 371 0
301 -371 0
370 -371 0
-195 -67 372 0
195 -372 0
67 -372 0
-301 -372 373 0
301 -373 0
372 -373 0
-302 -68 374 0
302 -374 0
68 -374 0
-254 -374 375 0
254 -375 0
374 -375 0
-195 -69 376 0
195 -376 0
69 -376 0
-254 -376 377 0
254 -377 0
376 -377 0
371 373 -378 0
-371 378 0
-373 378 0
375 378 -379 0
-375 379 0
-378 379 0
377 379 -281 0
-377 281 0
-379 281 0
-196 -254 282 0
196 -282 0
254 -282 0
-197 -254 283 0
197 -283 0
254 -283 0
-194 -255 284 0
194 -284 0
255 -284 0
195 302 0
-195 -302 0
255 303 0
-255 -303 0
-302 -70 380 0
302 -380 0
70 -380 0
-303 -380 381 0
303 -381 0
380 -381 0
-195 -71 382 0
195 -382 0
71 -382 0
-303 -382 383 0
303 -383 0
382 -383 0
-302 -72 384 0
302 -384 0
72 -384 0
-255 -384 385 0
255 -385 0
384 -385 0
-195 -73 386 0
195 -386 0
73 -386 0
-255 -386 387 0
255 -387 0
386 -387 0
381 383 -388 0
-381 388 0
-383 388 0
385 388 -389 0
-385 389 0
-388 389 0
387 389 -285 0
-387 285 0
-389 285 0
-196 -255 286 0
196 -286 0
255 -286 0
-197 -255 287 0
197 -287 0
255 -287 0
-1 -256 -86 0
1 256 -86 0
1 -256 86 0
-1 256 86 0
2 304 0
-2 -304 0
257 305 0
-257 -305 0
-304 -74 390 0
304 -390 0
74 -390 0
-305 -390 391 0
305 -391 0
390 -391 0
-2 -75 392 0
2 -392 0
75 -392 0
-305 -392 393 0
305 -393 0
392 -393 0
-304 -76 394 0
304 -394 0
76 -394 0
-257 -394 395 0
257 -395 0
394 -395 0
-2 -77 396 0
2 -396 0
77 -396 0
-257 -396 397 0
257 -397 0
396 -397 0
391 393 -398 0
-391 398 0
-393 398 0
395 398 -399 0
-395 399 0
-398 399 0
397 399 -87 0
-397 87 0
-399 87 0
-3 -258 -88 0
3 258 -88 0
3 -258 88 0
-3 258 88 0
4 306 0
-4 -306 0
259 307 0
-259 -307 0
-306 -78 400 0
306 -400 0
78 -400 0
-307 -400 401 0
307 -401 0
400 -401 0
-4 -79 402 0
4 -402 0
79 -402 0
-307 -402 403 0
307 -403 0
402 -403 0
-306 -80 404 0
306 -404 0
80 -404 0
-259 -404 405 0
259 -405 0
404 -405 0
-4 -81 406 0
4 -406 0
81 -406 0
-259 -406 407 0
259 -407 0
406 -407 0
401 403 -408 0
-401 408 0
-403 408 0
405 408 -409 0
-405 409 0
-408 409 0
407 409 -89 0
-407 89 0
-409 89 0
-5 -260 -90 0
5 260 -90 0
5 -260 90 0
-5 260 90 0
-6 -261 -91 0
6 261 -91 0
6 -261 91 0
-6 261 91 0
-7 -262 -92 0
7 262 -92 0
7 -262 92 0
-7 262 92 0
-8 -263 -93 0
8 263 -93 0
8 -263 93 0
-8 263 93 0
-9 -264 -94 0
9 264 -94 0
9 -264 94 0
-9 264 94 0
-10 -265 -95 0
10 265 -95 0
10 -265 95 0
-10 265 95 0
11 308 0
-11 -308 0
266 309 0
-266 -309 0
-308 -82 410 0
308 -410 0
82 -410 0
-309 -410 411 0
309 -411 0
410 -411 0
-11 -83 412 0
11 -412 0
83 -412 0
-309 -412 413 0
309 -413 0
412 -413 0
-308 -84 414 0
308 -414 0
84 -414 0
-266 -414 415 0
266 -415 0
414 -415 0
-11 -85 416 0
11 -416 0
85 -416 0
-266 -416 417 0
266 -417 0
416 -417 0
411 413 -418 0
-411 418 0
-413 418 0
415 418 -419 0
-415 419 0
-418 419 0
417 419 -96 0
-417 96 0
-419 96 0
-12 -267 -97 0
12 267 -97 0
12 -267 97 0
-12 267 97 0
-13 -268 -98 0
13 268 -98 0
13 -268 98 0
-13 268 98 0
-14 -269 -99 0
14 269 -99 0
14 -269 99 0
-14 269 99 0
-15 -270 -100 0
15 270 -100 0
15 -270 100 0
-15 270 100 0
-16 -271 -101 0
16 271 -101 0
16 -271 101 0
-16 271 101 0
-17 -272 -102 0
17 272 -102 0
17 -272 102 0
-17 272 102 0
-18 -273 -103 0
18 273 -103 0
18 -273 103 0
-18 273 103 0
-19 -274 -104 0
19 274 -104 0
19 -274 104 0
-19 274 104 0
-20 -275 -105 0
20 275 -105 0
20 -275 105 0
-20 275 105 0
-21 -276 -106 0
21 276 -106 0
21 -276 106 0
-21 276 106 0
-22 -277 -107 0
22 277 -107 0
22 -277 107 0
-22 277 107 0
-23 -278 -108 0
23 278 -108 0
23 -278 108 0
-23 278 108 0
-24 -279 -109 0
24 279 -109 0
24 -279 109 0
-24 279 109 0
-25 -280 -110 0
25 280 -110 0
25 -280 110 0
-25 280 110 0
-26 -281 -111 0
26 281 -111 0
26 -281 111 0
-26 281 111 0
-27 -282 -112 0
27 282 -112 0
27 -282 112 0
-27 282 112 0
-28 -283 -113 0
28 283 -113 0
28 -283 113 0
-28 283 113 0
-29 -284 -114 0
29 284 -114 0
29 -284 114 0
-29 284 114 0
-30 -285 -115 0
30 285 -115 0
30 -285 115 0
-30 285 115 0
-31 -286 -116 0
31 286 -116 0
31 -286 116 0
-31 286 116 0
-32 -287 -117 0
32 287 -117 0
32 -287 117 0
-32 287 117 0
c The second circuit:
-420 -421 -537 0
420 421 -537 0
420 -421 537 0
-420 421 537 0
-422 -423 -538 0
422 423 -538 0
422 -423 538 0
-422 423 538 0
-424 -425 -539 0
424 425 -539 0
424 -425 539 0
-424 425 539 0
-426 -427 -540 0
426 427 -540 0
426 -427 540 0
-426 427 540 0
-428 -429 -541 0
428 429 -541 0
428 -429 541 0
-428 429 541 0
-430 -431 -542 0
430 431 -542 0
430 -431 542 0
-430 431 542 0
-432 -433 -543 0
432 433 -543 0
432 -433 543 0
-432 433 543 0
-434 -435 -544 0
434 435 -544 0
434 -435 544 0
-434 435 544 0
-436 -437 -545 0
436 437 -545 0
436 -437 545 0
-436 437 545 0
438 707 0
-438 -707 0
439 708 0
-439 -708 0
-707 -461 729 0
707 -729 0
461 -729 0
-708 -729 730 0
708 -730 0
729 -730 0
-438 -462 731 0
438 -731 0
462 -731 0
-708 -731 732 0
708 -732 0
731 -732 0
-707 -463 733 0
707 -733 0
463 -733 0
-439 -733 734 0
439 -734 0
733 -734 0
-438 -464 735 0
438 -735 0
464 -735 0
-439 -735 736 0
439 -736 0
735 -736 0
730 732 -737 0
-730 737 0
-732 737 0
734 737 -738 0
-734 738 0
-737 738 0
736 738 -546 0
-736 546 0
-738 546 0
440 709 0
-440 -709 0
441 710 0
-441 -710 0
-709 -465 739 0
709 -739 0
465 -739 0
-710 -739 740 0
710 -740 0
739 -740 0
-440 -466 741 0
440 -741 0
466 -741 0
-710 -741 742 0
710 -742 0
741 -742 0
-709 -467 743 0
709 -743 0
467 -743 0
-441 -743 744 0
441 -744 0
743 -744 0
-440 -468 745 0
440 -745 0
468 -745 0
-441 -745 746 0
441 -746 0
745 -746 0
740 742 -747 0
-740 747 0
-742 747 0
744 747 -748 0
-744 748 0
-747 748 0
746 748 -547 0
-746 547 0
-748 547 0
-442 -443 -548 0
442 443 -548 0
442 -443 548 0
-442 443 548 0
444 711 0
-444 -711 0
445 712 0
-445 -712 0
-711 -469 749 0
711 -749 0
469 -749 0
-712 -749 750 0
712 -750 0
749 -750 0
-444 -470 751 0
444 -751 0
470 -751 0
-712 -751 752 0
712 -752 0
751 -752 0
-711 -471 753 0
711 -753 0
471 -753 0
-445 -753 754 0
445 -754 0
753 -754 0
-444 -472 755 0
444 -755 0
472 -755 0
-445 -755 756 0
445 -756 0
755 -756 0
750 752 -757 0
-750 757 0
-752 757 0
754 757 -758 0
-754 758 0
-757 758 0
756 758 -549 0
-756 549 0
-758 549 0
-446 -447 -550 0
446 447 -550 0
446 -447 550 0
-446 447 550 0
-448 -449 -551 0
448 449 -551 0
448 -449 551 0
-448 449 551 0
-450 -451 -552 0
450 451 -552 0
450 -451 552 0
-450 451 552 0
-452 -460 553 0
452 -553 0
460 -553 0
-453 -460 554 0
453 -554 0
460 -554 0
-454 -460 555 0
454 -555 0
460 -555 0
-455 -460 556 0
455 -556 0
460 -556 0
-456 -460 557 0
456 -557 0
460 -557 0
-457 -460 558 0
457 -558 0
460 -558 0
-458 -460 559 0
458 -559 0
460 -559 0
-459 -460 560 0
459 -560 0
460 -560 0
-420 -424 -561 0
420 424 -561 0
420 -424 561 0
-420 424 561 0
-428 -432 -562 0
428 432 -562 0
428 -432 562 0
-428 432 562 0
-421 -425 -563 0
421 425 -563 0
421 -425 563 0
-421 425 563 0
-429 -433 -564 0
429 433 -564 0
429 -433 564 0
-429 433 564 0
-422 -426 -565 0
422 426 -565 0
422 -426 565 0
-422 426 565 0
-430 -434 -566 0
430 434 -566 0
430 -434 566 0
-430 434 566 0
-423 -427 -567 0
423 427 -567 0
423 -427 567 0
-423 427 567 0
-431 -435 -568 0
431 435 -568 0
431 -435 568 0
-431 435 568 0
-436 -440 -569 0
436 440 -569 0
436 -440 569 0
-436 440 569 0
-444 -448 -570 0
444 448 -570 0
444 -448 570 0
-444 448 570 0
-437 -441 -571 0
437 441 -571 0
437 -441 571 0
-437 441 571 0
-445 -449 -572 0
445 449 -572 0
445 -449 572 0
-445 449 572 0
-438 -442 -573 0
438 442 -573 0
438 -442 573 0
-438 442 573 0
-446 -450 -574 0
446 450 -574 0
446 -450 574 0
-446 450 574 0
-439 -443 -575 0
439 443 -575 0
439 -443 575 0
-439 443 575 0
-447 -451 -576 0
447 451 -576 0
447 -451 576 0
-447 451 576 0
-537 -538 -577 0
537 538 -577 0
537 -538 577 0
-537 538 577 0
-539 -540 -578 0
539 540 -578 0
539 -540 578 0
-539 540 578 0
-541 -542 -579 0
541 542 -579 0
541 -542 579 0
-541 542 579 0
-543 -544 -580 0
543 544 -580 0
543 -544 580 0
-543 544 580 0
-545 -546 -581 0
545 546 -581 0
545 -546 581 0
-545 546 581 0
-547 -548 -582 0
547 548 -582 0
547 -548 582 0
-547 548 582 0
-549 -550 -583 0
549 550 -583 0
549 -550 583 0
-549 550 583 0
-551 -552 -584 0
551 552 -584 0
551 -552 584 0
-551 552 584 0
-561 -562 -585 0
561 562 -585 0
561 -562 585 0
-561 562 585 0
-563 -564 -586 0
563 564 -586 0
563 -564 586 0
-563 564 586 0
-565 -566 -587 0
565 566 -587 0
565 -566 587 0
-565 566 587 0
-567 -568 -588 0
567 568 -588 0
567 -568 588 0
-567 568 588 0
-569 -570 -589 0
569 570 -589 0
569 -570 589 0
-569 570 589 0
-571 -572 -590 0
571 572 -590 0
571 -572 590 0
-571 572 590 0
-573 -574 -591 0
573 574 -591 0
573 -574 591 0
-573 574 591 0
575 713 0
-575 -713 0
576 714 0
-576 -714 0
-713 -473 759 0
713 -759 0
473 -759 0
-714 -759 760 0
714 -760 0
759 -760 0
-575 -474 761 0
575 -761 0
474 -761 0
-714 -761 762 0
714 -762 0
761 -762 0
-713 -475 763 0
713 -763 0
475 -763 0
-576 -763 764 0
576 -764 0
763 -764 0
-575 -476 765 0
575 -765 0
476 -765 0
-576 -765 766 0
576 -766 0
765 -766 0
760 762 -767 0
-760 767 0
-762 767 0
764 767 -768 0
-764 768 0
-767 768 0
766 768 -592 0
-766 592 0
-768 592 0
-577 -578 -593 0
577 578 -593 0
577 -578 593 0
-577 578 593 0
-579 -580 -594 0
579 580 -594 0
579 -580 594 0
-579 580 594 0
-577 -579 -595 0
577 579 -595 0
577 -579 595 0
-577 579 595 0
-578 -580 -596 0
578 580 -596 0
578 -580 596 0
-578 580 596 0
-581 -582 -597 0
581 582 -597 0
581 -582 597 0
-581 582 597 0
-583 -584 -598 0
583 584 -598 0
583 -584 598 0
-583 584 598 0
-581 -583 -599 0
581 583 -599 0
581 -583 599 0
-581 583 599 0
-582 -584 -600 0
582 584 -600 0
582 -584 600 0
-582 584 600 0
-553 -597 -601 0
553 597 -601 0
553 -597 601 0
-553 597 601 0
-554 -598 -602 0
554 598 -602 0
554 -598 602 0
-554 598 602 0
-555 -599 -603 0
555 599 -603 0
555 -599 603 0
-555 599 603 0
-556 -600 -604 0
556 600 -604 0
556 -600 604 0
-556 600 604 0
-557 -593 -605 0
557 593 -605 0
557 -593 605 0
-557 593 605 0
-558 -594 -606 0
558 594 -606 0
558 -594 606 0
-558 594 606 0
559 715 0
-559 -715 0
595 716 0
-595 -716 0
-715 -477 769 0
715 -769 0
477 -769 0
-716 -769 770 0
716 -770 0
769 -770 0
-559 -478 771 0
559 -771 0
478 -771 0
-716 -771 772 0
716 -772 0
771 -772 0
-715 -479 773 0
715 -773 0
479 -773 0
-595 -773 774 0
595 -774 0
773 -774 0
-559 -480 775 0
559 -775 0
480 -775 0
-595 -775 776 0
595 -776 0
775 -776 0
770 772 -777 0
-770 777 0
-772 777 0
774 777 -778 0
-774 778 0
-777 778 0
776 778 -607 0
-776 607 0
-778 607 0
-560 -596 -608 0
560 596 -608 0
560 -596 608 0
-560 596 608 0
-585 -601 -609 0
585 601 -609 0
585 -601 609 0
-585 601 609 0
-586 -602 -610 0
586 602 -610 0
586 -602 610 0
-586 602 610 0
-587 -603 -611 0
587 603 -611 0
587 -603 611 0
-587 603 611 0
-588 -604 -612 0
588 604 -612 0
588 -604 612 0
-588 604 612 0
-589 -605 -613 0
589 605 -613 0
589 -605 613 0
-589 605 613 0
-590 -606 -614 0
590 606 -614 0
590 -606 614 0
-590 606 614 0
-591 -607 -615 0
591 607 -615 0
591 -607 615 0
-591 607 615 0
592 717 0
-592 -717 0
608 718 0
-608 -718 0
-717 -481 779 0
717 -779 0
481 -779 0
-718 -779 780 0
718 -780 0
779 -780 0
-592 -482 781 0
592 -781 0
482 -781 0
-718 -781 782 0
718 -782 0
781 -782 0
-717 -483 783 0
717 -783 0
483 -783 0
-608 -783 784 0
608 -784 0
783 -784 0
-592 -484 785 0
592 -785 0
484 -785 0
-608 -785 786 0
608 -786 0
785 -786 0
780 782 -787 0
-780 787 0
-782 787 0
784 787 -788 0
-784 788 0
-787 788 0
786 788 -616 0
-786 616 0
-788 616 0
609 617 0
-609 -617 0
610 618 0
-610 -618 0
611 619 0
-611 -619 0
609 620 0
-609 -620 0
610 621 0
-610 -621 0
612 622 0
-612 -622 0
609 623 0
-609 -623 0
611 624 0
-611 -624 0
612 625 0
-612 -625 0
610 626 0
-610 -626 0
611 627 0
-611 -627 0
612 628 0
-612 -628 0
614 629 0
-614 -629 0
616 630 0
-616 -630 0
614 631 0
-614 -631 0
615 632 0
-615 -632 0
613 633 0
-613 -633 0
616 634 0
-616 -634 0
613 635 0
-613 -635 0
615 636 0
-615 -636 0
613 637 0
-613 -637 0
614 638 0
-614 -638 0
615 639 0
-615 -639 0
613 640 0
-613 -640 0
614 641 0
-614 -641 0
616 642 0
-616 -642 0
613 643 0
-613 -643 0
615 644 0
-615 -644 0
616 645 0
-616 -645 0
614 646 0
-614 -646 0
615 647 0
-615 -647 0
616 648 0
-616 -648 0
610 649 0
-610 -649 0
612 650 0
-612 -650 0
610 651 0
-610 -651 0
611 652 0
-611 -652 0
609 653 0
-609 -653 0
612 654 0
-612 -654 0
609 655 0
-609 -655 0
611 656 0
-611 -656 0
-617 -618 -619 -612 657 0
617 -657 0
618 -657 0
619 -657 0
612 -657 0
-620 -621 -611 -622 658 0
620 -658 0
621 -658 0
611 -658 0
622 -658 0
-623 -610 -624 -625 659 0
623 -659 0
610 -659 0
624 -659 0
625 -659 0
-609 -626 -627 -628 660 0
609 -660 0
626 -660 0
627 -660 0
628 -660 0
-637 -638 -639 -616 661 0
637 -661 0
638 -661 0
639 -661 0
616 -661 0
-640 -641 -615 -642 662 0
640 -662 0
641 -662 0
615 -662 0
642 -662 0
-643 -614 -644 -645 663 0
643 -663 0
614 -663 0
644 -663 0
645 -663 0
-613 -646 -647 -648 664 0
613 -664 0
646 -664 0
647 -664 0
648 -664 0
657 658 659 660 -665 0
-657 665 0
-658 665 0
-659 665 0
-660 665 0
661 662 663 664 -666 0
-661 666 0
-662 666 0
-663 666 0
-664 666 0
-613 -629 -615 -630 -665 667 0
613 -667 0
629 -667 0
615 -667 0
630 -667 0
665 -667 0
-613 -631 -632 -616 -665 668 0
613 -668 0
631 -668 0
632 -668 0
616 -668 0
665 -668 0
-633 -614 -615 -634 -665 669 0
633 -669 0
614 -669 0
615 -669 0
634 -669 0
665 -669 0
-635 -614 -636 -616 -665 670 0
635 -670 0
614 -670 0
636 -670 0
616 -670 0
665 -670 0
-609 -649 -611 -650 -666 671 0
609 -671 0
649 -671 0
611 -671 0
650 -671 0
666 -671 0
-609 -651 -652 -612 -666 672 0
609 -672 0
651 -672 0
652 -672 0
612 -672 0
666 -672 0
-653 -610 -611 -654 -666 673 0
653 -673 0
610 -673 0
611 -673 0
654 -673 0
666 -673 0
-655 -610 -656 -612 -666 674 0
655 -674 0
610 -674 0
656 -674 0
612 -674 0
666 -674 0
-609 -667 675 0
609 -675 0
667 -675 0
-610 -667 676 0
610 -676 0
667 -676 0
-611 -667 677 0
611 -677 0
667 -677 0
-612 -667 678 0
612 -678 0
667 -678 0
-609 -668 679 0
609 -679 0
668 -679 0
-610 -668 680 0
610 -680 0
668 -680 0
-611 -668 681 0
611 -681 0
668 -681 0
-612 -668 682 0
612 -682 0
668 -682 0
-609 -669 683 0
609 -683 0
669 -683 0
-610 -669 684 0
610 -684 0
669 -684 0
-611 -669 685 0
611 -685 0
669 -685 0
-612 -669 686 0
612 -686 0
669 -686 0
-609 -670 687 0
609 -687 0
670 -687 0
-610 -670 688 0
610 -688 0
670 -688 0
-611 -670 689 0
611 -689 0
670 -689 0
-612 -670 690 0
612 -690 0
670 -690 0
-613 -671 691 0
613 -691 0
671 -691 0
-614 -671 692 0
614 -692 0
671 -692 0
-615 -671 693 0
615 -693 0
671 -693 0
-616 -671 694 0
616 -694 0
671 -694 0
-613 -672 695 0
613 -695 0
672 -695 0
-614 -672 696 0
614 -696 0
672 -696 0
-615 -672 697 0
615 -697 0
672 -697 0
-616 -672 698 0
616 -698 0
672 -698 0
-613 -673 699 0
613 -699 0
673 -699 0
614 721 0
-614 -721 0
673 720 0
-673 -720 0
-721 -485 789 0
721 -789 0
485 -789 0
-720 -789 790 0
720 -790 0
789 -790 0
-614 -486 791 0
614 -791 0
486 -791 0
-720 -791 792 0
720 -792 0
791 -792 0
-721 -487 793 0
721 -793 0
487 -793 0
-673 -793 794 0
673 -794 0
793 -794 0
-614 -488 795 0
614 -795 0
488 -795 0
-673 -795 796 0
673 -796 0
795 -796 0
790 792 -797 0
-790 797 0
-792 797 0
794 797 -798 0
-794 798 0
-797 798 0
796 798 -700 0
-796 700 0
-798 700 0
-615 -673 701 0
615 -701 0
673 -701 0
-616 -673 702 0
616 -702 0
673 -702 0
-613 -674 703 0
613 -703 0
674 -703 0
614 721 0
-614 -721 0
674 722 0
-674 -722 0
-721 -489 799 0
721 -799 0
489 -799 0
-722 -799 800 0
722 -800 0
799 -800 0
-614 -490 801 0
614 -801 0
490 -801 0
-722 -801 802 0
722 -802 0
801 -802 0
-721 -491 803 0
721 -803 0
491 -803 0
-674 -803 804 0
674 -804 0
803 -804 0
-614 -492 805 0
614 -805 0
492 -805 0
-674 -805 806 0
674 -806 0
805 -806 0
800 802 -807 0
-800 807 0
-802 807 0
804 807 -808 0
-804 808 0
-807 808 0
806 808 -704 0
-806 704 0
-808 704 0
-615 -674 705 0
615 -705 0
674 -705 0
-616 -674 706 0
616 -706 0
674 -706 0
-420 -675 -505 0
420 675 -505 0
420 -675 505 0
-420 675 505 0
421 723 0
-421 -723 0
676 724 0
-676 -724 0
-723 -493 809 0
723 -809 0
493 -809 0
-724 -809 810 0
724 -810 0
809 -810 0
-421 -494 811 0
421 -811 0
494 -811 0
-724 -811 812 0
724 -812 0
811 -812 0
-723 -495 813 0
723 -813 0
495 -813 0
-676 -813 814 0
676 -814 0
813 -814 0
-421 -496 815 0
421 -815 0
496 -815 0
-676 -815 816 0
676 -816 0
815 -816 0
810 812 -817 0
-810 817 0
-812 817 0
814 817 -818 0
-814 818 0
-817 818 0
816 818 -506 0
-816 506 0
-818 506 0
-422 -677 -507 0
422 677 -507 0
422 -677 507 0
-422 677 507 0
423 725 0
-423 -725 0
678 726 0
-678 -726 0
-725 -497 819 0
725 -819 0
497 -819 0
-726 -819 820 0
726 -820 0
819 -820 0
-423 -498 821 0
423 -821 0
498 -821 0
-726 -821 822 0
726 -822 0
821 -822 0
-725 -499 823 0
725 -823 0
499 -823 0
-678 -823 824 0
678 -824 0
823 -824 0
-423 -500 825 0
423 -825 0
500 -825 0
-678 -825 826 0
678 -826 0
825 -826 0
820 822 -827 0
-820 827 0
-822 827 0
824 827 -828 0
-824 828 0
-827 828 0
826 828 -508 0
-826 508 0
-828 508 0
-424 -679 -509 0
424 679 -509 0
424 -679 509 0
-424 679 509 0
-425 -680 -510 0
425 680 -510 0
425 -680 510 0
-425 680 510 0
-426 -681 -511 0
426 681 -511 0
426 -681 511 0
-426 681 511 0
-427 -682 -512 0
427 682 -512 0
427 -682 512 0
-427 682 512 0
-428 -683 -513 0
428 683 -513 0
428 -683 513 0
-428 683 513 0
-429 -684 -514 0
429 684 -514 0
429 -684 514 0
-429 684 514 0
430 727 0
-430 -727 0
685 728 0
-685 -728 0
-727 -501 829 0
727 -829 0
501 -829 0
-728 -829 830 0
728 -830 0
829 -830 0
-430 -502 831 0
430 -831 0
502 -831 0
-728 -831 832 0
728 -832 0
831 -832 0
-727 -503 833 0
727 -833 0
503 -833 0
-685 -833 834 0
685 -834 0
833 -834 0
-430 -504 835 0
430 -835 0
504 -835 0
-685 -835 836 0
685 -836 0
835 -836 0
830 832 -837 0
-830 837 0
-832 837 0
834 837 -838 0
-834 838 0
-837 838 0
836 838 -515 0
-836 515 0
-838 515 0
-431 -686 -516 0
431 686 -516 0
431 -686 516 0
-431 686 516 0
-432 -687 -517 0
432 687 -517 0
432 -687 517 0
-432 687 517 0
-433 -688 -518 0
433 688 -518 0
433 -688 518 0
-433 688 518 0
-434 -689 -519 0
434 689 -519 0
434 -689 519 0
-434 689 519 0
-435 -690 -520 0
435 690 -520 0
435 -690 520 0
-435 690 520 0
-436 -691 -521 0
436 691 -521 0
436 -691 521 0
-436 691 521 0
-437 -692 -522 0
437 692 -522 0
437 -692 522 0
-437 692 522 0
-438 -693 -523 0
438 693 -523 0
438 -693 523 0
-438 693 523 0
-439 -694 -524 0
439 694 -524 0
439 -694 524 0
-439 694 524 0
-440 -695 -525 0
440 695 -525 0
440 -695 525 0
-440 695 525 0
-441 -696 -526 0
441 696 -526 0
441 -696 526 0
-441 696 526 0
-442 -697 -527 0
442 697 -527 0
442 -697 527 0
-442 697 527 0
-443 -698 -528 0
443 698 -528 0
443 -698 528 0
-443 698 528 0
-444 -699 -529 0
444 699 -529 0
444 -699 529 0
-444 699 529 0
-445 -700 -530 0
445 700 -530 0
445 -700 530 0
-445 700 530 0
-446 -701 -531 0
446 701 -531 0
446 -701 531 0
-446 701 531 0
-447 -702 -532 0
447 702 -532 0
447 -702 532 0
-447 702 532 0
-448 -703 -533 0
448 703 -533 0
448 -703 533 0
-448 703 533 0
-449 -704 -534 0
449 704 -534 0
449 -704 534 0
-449 704 534 0
-450 -705 -535 0
450 705 -535 0
450 -705 535 0
-450 705 535 0
-451 -706 -536 0
451 706 -536 0
451 -706 536 0
-451 706 536 0
c Force PIs of 2 ckts to be the same:
1 -420 0
-1 420 0
2 -421 0
-2 421 0
3 -422 0
-3 422 0
4 -423 0
-4 423 0
5 -424 0
-5 424 0
6 -425 0
-6 425 0
7 -426 0
-7 426 0
8 -427 0
-8 427 0
9 -428 0
-9 428 0
10 -429 0
-10 429 0
11 -430 0
-11 430 0
12 -431 0
-12 431 0
13 -432 0
-13 432 0
14 -433 0
-14 433 0
15 -434 0
-15 434 0
16 -435 0
-16 435 0
17 -436 0
-17 436 0
18 -437 0
-18 437 0
19 -438 0
-19 438 0
20 -439 0
-20 439 0
21 -440 0
-21 440 0
22 -441 0
-22 441 0
23 -442 0
-23 442 0
24 -443 0
-24 443 0
25 -444 0
-25 444 0
26 -445 0
-26 445 0
27 -446 0
-27 446 0
28 -447 0
-28 447 0
29 -448 0
-29 448 0
30 -449 0
-30 449 0
31 -450 0
-31 450 0
32 -451 0
-32 451 0
33 -452 0
-33 452 0
34 -453 0
-34 453 0
35 -454 0
-35 454 0
36 -455 0
-36 455 0
37 -456 0
-37 456 0
38 -457 0
-38 457 0
39 -458 0
-39 458 0
40 -459 0
-40 459 0
41 -460 0
-41 460 0
c XOR outputs of 2 ckts:
-86 -505 -839 0
86 505 -839 0
86 -505 839 0
-86 505 839 0
-87 -506 -840 0
87 506 -840 0
87 -506 840 0
-87 506 840 0
-88 -507 -841 0
88 507 -841 0
88 -507 841 0
-88 507 841 0
-89 -508 -842 0
89 508 -842 0
89 -508 842 0
-89 508 842 0
-90 -509 -843 0
90 509 -843 0
90 -509 843 0
-90 509 843 0
-91 -510 -844 0
91 510 -844 0
91 -510 844 0
-91 510 844 0
-92 -511 -845 0
92 511 -845 0
92 -511 845 0
-92 511 845 0
-93 -512 -846 0
93 512 -846 0
93 -512 846 0
-93 512 846 0
-94 -513 -847 0
94 513 -847 0
94 -513 847 0
-94 513 847 0
-95 -514 -848 0
95 514 -848 0
95 -514 848 0
-95 514 848 0
-96 -515 -849 0
96 515 -849 0
96 -515 849 0
-96 515 849 0
-97 -516 -850 0
97 516 -850 0
97 -516 850 0
-97 516 850 0
-98 -517 -851 0
98 517 -851 0
98 -517 851 0
-98 517 851 0
-99 -518 -852 0
99 518 -852 0
99 -518 852 0
-99 518 852 0
-100 -519 -853 0
100 519 -853 0
100 -519 853 0
-100 519 853 0
-101 -520 -854 0
101 520 -854 0
101 -520 854 0
-101 520 854 0
-102 -521 -855 0
102 521 -855 0
102 -521 855 0
-102 521 855 0
-103 -522 -856 0
103 522 -856 0
103 -522 856 0
-103 522 856 0
-104 -523 -857 0
104 523 -857 0
104 -523 857 0
-104 523 857 0
-105 -524 -858 0
105 524 -858 0
105 -524 858 0
-105 524 858 0
-106 -525 -859 0
106 525 -859 0
106 -525 859 0
-106 525 859 0
-107 -526 -860 0
107 526 -860 0
107 -526 860 0
-107 526 860 0
-108 -527 -861 0
108 527 -861 0
108 -527 861 0
-108 527 861 0
-109 -528 -862 0
109 528 -862 0
109 -528 862 0
-109 528 862 0
-110 -529 -863 0
110 529 -863 0
110 -529 863 0
-110 529 863 0
-111 -530 -864 0
111 530 -864 0
111 -530 864 0
-111 530 864 0
-112 -531 -865 0
112 531 -865 0
112 -531 865 0
-112 531 865 0
-113 -532 -866 0
113 532 -866 0
113 -532 866 0
-113 532 866 0
-114 -533 -867 0
114 533 -867 0
114 -533 867 0
-114 533 867 0
-115 -534 -868 0
115 534 -868 0
115 -534 868 0
-115 534 868 0
-116 -535 -869 0
116 535 -869 0
116 -535 869 0
-116 535 869 0
-117 -536 -870 0
117 536 -870 0
117 -536 870 0
-117 536 870 0
c The last OR gate of the miter:
839 840 841 842 843 844 845 846 847 848 849 850 851 852 853 854 855 856 857 858 859 860 861 862 863 864 865 866 867 868 869 870 -871 0
-839 871 0
-840 871 0
-841 871 0
-842 871 0
-843 871 0
-844 871 0
-845 871 0
-846 871 0
-847 871 0
-848 871 0
-849 871 0
-850 871 0
-851 871 0
-852 871 0
-853 871 0
-854 871 0
-855 871 0
-856 871 0
-857 871 0
-858 871 0
-859 871 0
-860 871 0
-861 871 0
-862 871 0
-863 871 0
-864 871 0
-865 871 0
-866 871 0
-867 871 0
-868 871 0
-869 871 0
-870 871 0
871 0
